67 83
47 33
87 59
33 55
2 88
44 57
16 19
60 6
100 94
89 86
95 38
84 38
45 85
82 63
41 13
67 13
0 30
59 35
68 55
29 21
44 44
37 99
34 36
98 30
26 23
67 52
94 45
58 31
18 8
82 47
45 35
4 97
59 27
47 33
84 71
89 20
11 47
12 15
50 84
68 78
5 23
60 99
78 17
61 66
93 51
53 39
49 82
91 62
97 14
90 95
38 98
67 83